p cnf 17 6
-13 5 -11 0
-5 -2 14 0
7 -14 2 -3 -8 -4 -16 -15 -11 -13 9 -1 -12 0
16 -6 -12 -14 -13 5 -7 -9 15 8 4 2 3 17 11 -10 1 0
-12 15 7 -8 17 -6 1 -13 -9 5 0
3 1 -17 -13 14 15 9 6 -4 5 16 -10 -7 -2 -8 -12 0
